solution status: optimal solution found
objective value:                     166135.499999987
d11(0,0)                                            1 	(obj:0)
d11(1,1)                                            1 	(obj:0)
d11(1,2)                                            1 	(obj:0)
d11(1,3)                                            1 	(obj:0)
d11(2,4)                                            1 	(obj:0)
d11(2,5)                                            1 	(obj:0)
d11(2,6)                                            1 	(obj:0)
d11(2,7)                                            1 	(obj:0)
d11(2,8)                                            1 	(obj:0)
d11(2,9)                                            1 	(obj:0)
d11(2,10)                                           1 	(obj:0)
d11(2,11)                                           1 	(obj:0)
d11(3,13)                                           1 	(obj:0)
d11(3,14)                                           1 	(obj:0)
d11(3,15)                                           1 	(obj:0)
d11(3,16)                                           1 	(obj:0)
d11(3,17)                                           1 	(obj:0)
d11(3,18)                                           1 	(obj:0)
d11(3,19)                                           1 	(obj:0)
d11(3,20)                                           1 	(obj:0)
d11(3,21)                                           1 	(obj:0)
d11(3,22)                                           1 	(obj:0)
d11(3,23)                                           1 	(obj:0)
d11(3,24)                                           1 	(obj:0)
d11(3,25)                                           1 	(obj:0)
d11(3,26)                                           1 	(obj:0)
d11(3,27)                                           1 	(obj:0)
d11(3,28)                                           1 	(obj:0)
d11(3,29)                                           1 	(obj:0)
d11(3,31)                                           1 	(obj:0)
d11(3,32)                                           1 	(obj:0)
d11(3,33)                                           1 	(obj:0)
d11(3,34)                                           1 	(obj:0)
d11(3,35)                                           1 	(obj:0)
d11(3,36)                                           1 	(obj:0)
d11(3,37)                                           1 	(obj:0)
d11(3,38)                                           1 	(obj:0)
d21(3,13)                                           1 	(obj:0)
d21(3,14)                                           1 	(obj:0)
d21(3,15)                                           1 	(obj:0)
d21(3,16)                                           1 	(obj:0)
d21(3,17)                                           1 	(obj:0)
d21(3,19)                                           1 	(obj:0)
d21(3,22)                                           1 	(obj:0)
d21(3,23)                                           1 	(obj:0)
d21(3,25)                                           1 	(obj:0)
d21(3,31)                                           1 	(obj:0)
STE(1,1)                             5974.13840333347 	(obj:0)
STE(0,0)                                        12600 	(obj:0)
STE(1,2)                             6970.90440666676 	(obj:0)
STE(1,3)                             8188.35661000011 	(obj:0)
STE(2,4)                              2751.9201966668 	(obj:0)
STE(2,5)                             3748.68620000009 	(obj:0)
STE(2,6)                             4966.13840333347 	(obj:0)
STE(2,7)                             3748.68620000009 	(obj:0)
STE(2,8)                             4745.45220333338 	(obj:0)
STE(2,9)                             5962.90440666673 	(obj:0)
STE(2,10)                            4966.13840333344 	(obj:0)
STE(2,11)                            5962.90440666673 	(obj:0)
STE(2,12)                            7180.35661000011 	(obj:0)
STE(3,13)                           -470.298009999873 	(obj:0)
STE(3,14)                            526.467993333418 	(obj:0)
STE(3,15)                             1743.9201966668 	(obj:0)
STE(3,16)                            526.467993333418 	(obj:0)
STE(3,17)                            1523.23399666671 	(obj:0)
STE(3,18)                            2740.68620000009 	(obj:0)
STE(3,19)                             1743.9201966668 	(obj:0)
STE(3,20)                            2740.68620000009 	(obj:0)
STE(3,21)                            3958.13840333347 	(obj:0)
STE(3,22)                            526.467993333418 	(obj:0)
STE(3,23)                            1523.23399666671 	(obj:0)
STE(3,24)                            2740.68620000009 	(obj:0)
STE(3,25)                            1523.23399666671 	(obj:0)
STE(3,26)                                        2520 	(obj:0)
STE(3,27)                            3737.45220333338 	(obj:0)
STE(3,28)                            2740.68620000003 	(obj:0)
STE(3,29)                            3737.45220333335 	(obj:0)
STE(3,30)                            4954.90440666673 	(obj:0)
STE(3,31)                            1743.92019666677 	(obj:0)
STE(3,32)                            2740.68620000006 	(obj:0)
STE(3,33)                            3958.13840333344 	(obj:0)
STE(3,34)                            2740.68620000006 	(obj:0)
STE(3,35)                            3737.45220333335 	(obj:0)
STE(3,36)                            4954.90440666673 	(obj:0)
STE(3,37)                            3958.13840333344 	(obj:0)
STE(3,38)                            4954.90440666673 	(obj:0)
STE(3,39)                            6172.35661000011 	(obj:0)
y1(3,23)                             1095.70698300004 	(obj:0)
y1(3,25)                                  1992.796386 	(obj:0)
y1(3,26)                             1095.70698300004 	(obj:0)
y1(3,28)                             1992.79638600003 	(obj:0)
y1(3,29)                             1095.70698300004 	(obj:0)
y1(3,31)                                  1992.796386 	(obj:0)
y1(3,32)                             1095.70698300004 	(obj:0)
y1(3,34)                                  1992.796386 	(obj:0)
y1(3,35)                             1095.70698300004 	(obj:0)
y1(3,37)                                  1992.796386 	(obj:0)
y1(3,38)                             1095.70698300004 	(obj:0)
BG(3)                                1204.56299667523 	(obj:10)
AVE(1)                               3199.95851117552 	(obj:0)
WB(2)                                3265.15049132519 	(obj:0)
AVE(2)                               3265.15049132519 	(obj:0)
AVE(3)                               3291.35535332476 	(obj:0)
WG(1)                                3199.95851117552 	(obj:10)
WG(3)                                3291.35535332476 	(obj:10)
BG(1)                                4421.75478882437 	(obj:10)
BG(2)                                4495.91834999999 	(obj:10)
y1(1,1)                              5056.07543699988 	(obj:0)
y1(1,2)                              4158.98603399992 	(obj:0)
y1(1,3)                               3063.2790509999 	(obj:0)
y1(2,4)                                   1992.796386 	(obj:0)
y1(2,5)                              1095.70698300004 	(obj:0)
y1(2,7)                                   1992.796386 	(obj:0)
y1(2,8)                              1095.70698300004 	(obj:0)
y1(2,10)                                  1992.796386 	(obj:0)
y1(2,11)                             1095.70698300004 	(obj:0)
y1(3,13)                                  1992.796386 	(obj:0)
y1(3,14)                             1095.70698300004 	(obj:0)
y1(3,16)                                  1992.796386 	(obj:0)
y1(3,17)                             1095.70698300004 	(obj:0)
y1(3,19)                                  1992.796386 	(obj:0)
y1(3,20)                             1095.70698300004 	(obj:0)
y1(3,22)                                  1992.796386 	(obj:0)
